
******************************************************************************
This program contains Ipopt, a library for large-scale nonlinear optimization.
 Ipopt is released as open source code under the Eclipse Public License (EPL).
         For more information visit http://projects.coin-or.org/Ipopt
******************************************************************************

This is Ipopt version 3.12.6, running with linear solver ma57.

Number of nonzeros in equality constraint Jacobian...:        0
Number of nonzeros in inequality constraint Jacobian.:        0
Number of nonzeros in Lagrangian Hessian.............:    21655

Total number of variables............................:     4999
                     variables with only lower bounds:        0
                variables with lower and upper bounds:        0
                     variables with only upper bounds:        0
Total number of equality constraints.................:        0
Total number of inequality constraints...............:        0
        inequality constraints with only lower bounds:        0
   inequality constraints with lower and upper bounds:        0
        inequality constraints with only upper bounds:        0

iter    objective    inf_pr   inf_du lg(mu)  ||d||  lg(rg) alpha_du alpha_pr  ls
   0  4.1412443e+03 0.00e+00 3.45e+00  -1.0 0.00e+00    -  0.00e+00 0.00e+00   0
   1  4.0726676e+03 0.00e+00 4.08e+00  -1.0 4.10e-02   2.0 1.00e+00 1.00e+00f  1
   2  3.7302309e+03 0.00e+00 6.56e+00  -1.0 2.19e-01   1.5 1.00e+00 1.00e+00f  1
   3  2.2624196e+03 0.00e+00 1.73e+01  -1.0 1.90e+00   1.0 1.00e+00 5.00e-01f  2
   4  1.6291749e+03 0.00e+00 7.81e+00  -1.0 2.12e-01   1.5 1.00e+00 1.00e+00f  1
   5  4.9784376e+02 0.00e+00 2.62e+00  -1.0 3.37e-01   1.0 1.00e+00 1.00e+00f  1
   6  5.9203924e+01 0.00e+00 1.63e+00  -1.0 5.87e-01   0.5 1.00e+00 1.00e+00f  1
   7  1.2771271e+01 0.00e+00 7.44e+00  -1.0 1.09e+00   0.0 1.00e+00 1.00e+00f  1
   8  9.3875774e+00 0.00e+00 3.86e+00  -1.0 1.42e-01   1.4 1.00e+00 1.00e+00f  1
   9  6.2127293e+00 0.00e+00 1.46e+00  -1.0 1.53e-01   0.9 1.00e+00 1.00e+00f  1
iter    objective    inf_pr   inf_du lg(mu)  ||d||  lg(rg) alpha_du alpha_pr  ls
  10  3.3826837e+00 0.00e+00 5.97e-01  -1.0 1.65e-01   0.4 1.00e+00 1.00e+00f  1
  11  1.2341500e+00 0.00e+00 1.68e-01  -1.7 1.20e-01  -0.1 1.00e+00 1.00e+00f  1
  12  2.6289741e-01 0.00e+00 4.39e-02  -2.5 1.63e-01  -0.5 1.00e+00 1.00e+00f  1
  13  2.0440360e-01 0.00e+00 9.78e-01  -2.5 6.53e-01    -  1.00e+00 1.00e+00f  1
  14  7.7437686e-02 0.00e+00 6.97e-01  -2.5 6.51e+00    -  1.00e+00 1.25e-01f  4
  15  2.9014048e-02 0.00e+00 9.34e-02  -2.5 7.74e-02  -1.0 1.00e+00 1.00e+00f  1
  16  2.6907316e-02 0.00e+00 2.90e-01  -2.5 9.75e-01  -1.5 1.00e+00 1.00e+00f  1
  17  4.7853229e-03 0.00e+00 5.26e-02  -2.5 1.47e-01    -  1.00e+00 1.00e+00f  1
  18  1.7570585e-03 0.00e+00 6.76e-02  -2.5 1.25e+00  -2.0 1.00e+00 2.50e-01f  3
  19  1.1496789e-05 0.00e+00 2.67e-03  -2.5 2.17e-02    -  1.00e+00 1.00e+00f  1
iter    objective    inf_pr   inf_du lg(mu)  ||d||  lg(rg) alpha_du alpha_pr  ls
  20  9.4418014e-08 0.00e+00 3.55e-04  -3.8 1.49e-02    -  1.00e+00 1.00e+00f  1
  21  4.9992123e-12 0.00e+00 1.12e-06  -5.7 8.89e-04    -  1.00e+00 1.00e+00f  1
  22  1.8555810e-15 0.00e+00 1.83e-10  -8.6 9.70e-06    -  1.00e+00 1.00e+00f  1

Number of Iterations....: 22

                                   (scaled)                 (unscaled)
Objective...............:   1.8555809930601937e-15    1.8555809930601937e-15
Dual infeasibility......:   1.8253356862364533e-10    1.8253356862364533e-10
Constraint violation....:   0.0000000000000000e+00    0.0000000000000000e+00
Complementarity.........:   0.0000000000000000e+00    0.0000000000000000e+00
Overall NLP error.......:   1.8253356862364533e-10    1.8253356862364533e-10


Number of objective function evaluations             = 41
Number of objective gradient evaluations             = 23
Number of equality constraint evaluations            = 0
Number of inequality constraint evaluations          = 0
Number of equality constraint Jacobian evaluations   = 0
Number of inequality constraint Jacobian evaluations = 0
Number of Lagrangian Hessian evaluations             = 22
Total CPU secs in IPOPT (w/o function evaluations)   =      0.083
Total CPU secs in NLP function evaluations           =      0.103

EXIT: Optimal Solution Found.

 ** SUBROUTINE CUTEST_csetup: Warning. The problem has no general constraints. 
 ** Other tools may be preferable ** 

************************ CUTEst statistics ************************


 Package used            :  IPOPT
 Problem                 :  SPMSRTLS  
 # variables             =            4999
 # constraints           =               0
 # objective functions   =        0.6500000E+02
 # objective gradients   =        0.2400000E+02
 # objective Hessians    =        0.2300000E+02
 # Hessian-vector prdct  =        0.0000000E+00
 # constraints functions =        0.0000000E+00
 # constraints gradients =        0.0000000E+00
 # constraints Hessians  =        0.0000000E+00
 Exit code               =               0
 Final f                 =   0.1855581E-14
 Set up time             =            0.14 seconds
 Solve time              =            0.30 seconds


******************************************************************

System Time =       0.1710000038 s.
